\ENCODING=ISO-8859-1
\Problem name: ilog.cplex

Maximize
 obj: 20 x_ijk_0_0_0 + 2 x_ijk_0_1_0 + 11 x_ijk_0_2_0 + 19 x_ijk_1_0_0
      + 17 x_ijk_1_1_0 + 10 x_ijk_2_0_0 + 10 x_ijk_2_1_0 + 3 x_ijk_2_2_0
      + 8 x_ijk_3_0_0 + 12 x_ijk_3_1_0 + 11 x_ijk_4_0_0 + 7 x_ijk_4_1_0
      + 16 x_ijk_5_0_0 + 14 x_ijk_5_1_0 + 5 x_ijk_5_2_0 + 15 x_ijk_6_0_0
      + 17 x_ijk_6_1_0 + 9 x_ijk_6_2_0 + 9 x_ijk_6_3_0 + 18 x_ijk_7_0_0
      + 2 x_ijk_7_1_0 + 4 x_ijk_7_2_0 + 19 x_ijk_7_3_0 + 10 x_ijk_8_0_0
      + 4 x_ijk_8_1_0 + 8 x_ijk_8_2_0 + 3 x_ijk_8_3_0 + 17 x_ijk_8_4_0
      + 20 x_ijk_0_0_1 + 2 x_ijk_0_1_1 + 11 x_ijk_0_2_1 + 19 x_ijk_1_0_1
      + 17 x_ijk_1_1_1 + 10 x_ijk_2_0_1 + 10 x_ijk_2_1_1 + 3 x_ijk_2_2_1
      + 8 x_ijk_3_0_1 + 12 x_ijk_3_1_1 + 11 x_ijk_4_0_1 + 7 x_ijk_4_1_1
      + 16 x_ijk_5_0_1 + 14 x_ijk_5_1_1 + 5 x_ijk_5_2_1 + 15 x_ijk_6_0_1
      + 17 x_ijk_6_1_1 + 9 x_ijk_6_2_1 + 9 x_ijk_6_3_1 + 18 x_ijk_7_0_1
      + 2 x_ijk_7_1_1 + 4 x_ijk_7_2_1 + 19 x_ijk_7_3_1 + 10 x_ijk_8_0_1
      + 4 x_ijk_8_1_1 + 8 x_ijk_8_2_1 + 3 x_ijk_8_3_1 + 17 x_ijk_8_4_1
      + 20 x_ijk_0_0_2 + 2 x_ijk_0_1_2 + 11 x_ijk_0_2_2 + 19 x_ijk_1_0_2
      + 17 x_ijk_1_1_2 + 10 x_ijk_2_0_2 + 10 x_ijk_2_1_2 + 3 x_ijk_2_2_2
      + 8 x_ijk_3_0_2 + 12 x_ijk_3_1_2 + 11 x_ijk_4_0_2 + 7 x_ijk_4_1_2
      + 16 x_ijk_5_0_2 + 14 x_ijk_5_1_2 + 5 x_ijk_5_2_2 + 15 x_ijk_6_0_2
      + 17 x_ijk_6_1_2 + 9 x_ijk_6_2_2 + 9 x_ijk_6_3_2 + 18 x_ijk_7_0_2
      + 2 x_ijk_7_1_2 + 4 x_ijk_7_2_2 + 19 x_ijk_7_3_2 + 10 x_ijk_8_0_2
      + 4 x_ijk_8_1_2 + 8 x_ijk_8_2_2 + 3 x_ijk_8_3_2 + 17 x_ijk_8_4_2
      + 20 x_ijk_0_0_3 + 2 x_ijk_0_1_3 + 11 x_ijk_0_2_3 + 19 x_ijk_1_0_3
      + 17 x_ijk_1_1_3 + 10 x_ijk_2_0_3 + 10 x_ijk_2_1_3 + 3 x_ijk_2_2_3
      + 8 x_ijk_3_0_3 + 12 x_ijk_3_1_3 + 11 x_ijk_4_0_3 + 7 x_ijk_4_1_3
      + 16 x_ijk_5_0_3 + 14 x_ijk_5_1_3 + 5 x_ijk_5_2_3 + 15 x_ijk_6_0_3
      + 17 x_ijk_6_1_3 + 9 x_ijk_6_2_3 + 9 x_ijk_6_3_3 + 18 x_ijk_7_0_3
      + 2 x_ijk_7_1_3 + 4 x_ijk_7_2_3 + 19 x_ijk_7_3_3 + 10 x_ijk_8_0_3
      + 4 x_ijk_8_1_3 + 8 x_ijk_8_2_3 + 3 x_ijk_8_3_3 + 17 x_ijk_8_4_3
      + 20 x_ijk_0_0_4 + 2 x_ijk_0_1_4 + 11 x_ijk_0_2_4 + 19 x_ijk_1_0_4
      + 17 x_ijk_1_1_4 + 10 x_ijk_2_0_4 + 10 x_ijk_2_1_4 + 3 x_ijk_2_2_4
      + 8 x_ijk_3_0_4 + 12 x_ijk_3_1_4 + 11 x_ijk_4_0_4 + 7 x_ijk_4_1_4
      + 16 x_ijk_5_0_4 + 14 x_ijk_5_1_4 + 5 x_ijk_5_2_4 + 15 x_ijk_6_0_4
      + 17 x_ijk_6_1_4 + 9 x_ijk_6_2_4 + 9 x_ijk_6_3_4 + 18 x_ijk_7_0_4
      + 2 x_ijk_7_1_4 + 4 x_ijk_7_2_4 + 19 x_ijk_7_3_4 + 10 x_ijk_8_0_4
      + 4 x_ijk_8_1_4 + 8 x_ijk_8_2_4 + 3 x_ijk_8_3_4 + 17 x_ijk_8_4_4
Subject To
 c1:  2 x_ijk_0_0_0 + 8 x_ijk_0_1_0 + 10 x_ijk_0_2_0 + 34 x_ijk_1_0_0
      + 14 x_ijk_1_1_0 + 39 x_ijk_2_0_0 + 24 x_ijk_2_1_0 + 17 x_ijk_2_2_0
      + 32 x_ijk_3_0_0 + 24 x_ijk_3_1_0 + 10 x_ijk_4_0_0 + 17 x_ijk_4_1_0
      + 16 x_ijk_5_0_0 + 32 x_ijk_5_1_0 + 12 x_ijk_5_2_0 + 14 x_ijk_6_0_0
      + 26 x_ijk_6_1_0 + 37 x_ijk_6_2_0 + 35 x_ijk_6_3_0 + 16 x_ijk_7_0_0
      + 11 x_ijk_7_1_0 + 32 x_ijk_7_2_0 + 39 x_ijk_7_3_0 + 21 x_ijk_8_0_0
      + 31 x_ijk_8_1_0 + 31 x_ijk_8_2_0 + 12 x_ijk_8_3_0 + 19 x_ijk_8_4_0 <= 95
 c2:  7 x_ijk_0_0_1 + 16 x_ijk_0_1_1 + 11 x_ijk_0_2_1 + 27 x_ijk_1_0_1
      + 25 x_ijk_1_1_1 + 38 x_ijk_2_0_1 + 40 x_ijk_2_1_1 + 33 x_ijk_2_2_1
      + 17 x_ijk_3_0_1 + x_ijk_3_1_1 + 19 x_ijk_4_0_1 + 23 x_ijk_4_1_1
      + 40 x_ijk_5_0_1 + 37 x_ijk_5_1_1 + 9 x_ijk_5_2_1 + 10 x_ijk_6_0_1
      + 8 x_ijk_6_1_1 + 29 x_ijk_6_2_1 + 39 x_ijk_6_3_1 + 16 x_ijk_7_0_1
      + 25 x_ijk_7_1_1 + 23 x_ijk_7_2_1 + 34 x_ijk_7_3_1 + 17 x_ijk_8_0_1
      + 2 x_ijk_8_1_1 + 34 x_ijk_8_2_1 + 22 x_ijk_8_3_1 + 22 x_ijk_8_4_1 <= 86
 c3:  36 x_ijk_0_0_2 + 2 x_ijk_0_1_2 + 2 x_ijk_0_2_2 + 21 x_ijk_1_0_2
      + 39 x_ijk_1_1_2 + 32 x_ijk_2_0_2 + 21 x_ijk_2_1_2 + 17 x_ijk_2_2_2
      + 20 x_ijk_3_0_2 + 10 x_ijk_3_1_2 + 18 x_ijk_4_0_2 + 38 x_ijk_4_1_2
      + 18 x_ijk_5_0_2 + 14 x_ijk_5_1_2 + 36 x_ijk_5_2_2 + 7 x_ijk_6_0_2
      + 2 x_ijk_6_1_2 + x_ijk_6_2_2 + 7 x_ijk_6_3_2 + 19 x_ijk_7_0_2
      + 15 x_ijk_7_1_2 + 18 x_ijk_7_2_2 + 21 x_ijk_7_3_2 + 4 x_ijk_8_0_2
      + 21 x_ijk_8_1_2 + 39 x_ijk_8_2_2 + 11 x_ijk_8_3_2 + 11 x_ijk_8_4_2 <= 99
 c4:  4 x_ijk_0_0_3 + 27 x_ijk_0_1_3 + 10 x_ijk_0_2_3 + 15 x_ijk_1_0_3
      + 33 x_ijk_1_1_3 + 15 x_ijk_2_0_3 + 36 x_ijk_2_1_3 + 38 x_ijk_2_2_3
      + 40 x_ijk_3_0_3 + 36 x_ijk_3_1_3 + 18 x_ijk_4_0_3 + 33 x_ijk_4_1_3
      + 35 x_ijk_5_0_3 + 8 x_ijk_5_1_3 + 22 x_ijk_5_2_3 + 22 x_ijk_6_0_3
      + 19 x_ijk_6_1_3 + 10 x_ijk_6_2_3 + 19 x_ijk_6_3_3 + 32 x_ijk_7_0_3
      + 18 x_ijk_7_1_3 + 6 x_ijk_7_2_3 + 12 x_ijk_7_3_3 + 30 x_ijk_8_0_3
      + 36 x_ijk_8_1_3 + 31 x_ijk_8_2_3 + 7 x_ijk_8_3_3 + 8 x_ijk_8_4_3 <= 77
 c5:  3 x_ijk_0_0_4 + 3 x_ijk_0_1_4 + 4 x_ijk_0_2_4 + 7 x_ijk_1_0_4
      + 5 x_ijk_1_1_4 + 16 x_ijk_2_0_4 + 10 x_ijk_2_1_4 + 8 x_ijk_2_2_4
      + 16 x_ijk_3_0_4 + 23 x_ijk_3_1_4 + 5 x_ijk_4_0_4 + 5 x_ijk_4_1_4
      + 10 x_ijk_5_0_4 + 16 x_ijk_5_1_4 + 3 x_ijk_5_2_4 + 17 x_ijk_6_0_4
      + 4 x_ijk_6_1_4 + 5 x_ijk_6_2_4 + 18 x_ijk_6_3_4 + 19 x_ijk_7_0_4
      + 6 x_ijk_7_1_4 + x_ijk_7_2_4 + 11 x_ijk_7_3_4 + 19 x_ijk_8_0_4
      + 16 x_ijk_8_1_4 + 11 x_ijk_8_2_4 + 3 x_ijk_8_3_4 + 11 x_ijk_8_4_4 <= 24
 c6:  x_ijk_0_0_0 + x_ijk_0_1_0 + x_ijk_0_2_0 <= 1
 c7:  x_ijk_0_0_1 + x_ijk_0_1_1 + x_ijk_0_2_1 <= 1
 c8:  x_ijk_0_0_2 + x_ijk_0_1_2 + x_ijk_0_2_2 <= 1
 c9:  x_ijk_0_0_3 + x_ijk_0_1_3 + x_ijk_0_2_3 <= 1
 c10: x_ijk_0_0_4 + x_ijk_0_1_4 + x_ijk_0_2_4 <= 1
 c11: x_ijk_1_0_0 + x_ijk_1_1_0 <= 1
 c12: x_ijk_1_0_1 + x_ijk_1_1_1 <= 1
 c13: x_ijk_1_0_2 + x_ijk_1_1_2 <= 1
 c14: x_ijk_1_0_3 + x_ijk_1_1_3 <= 1
 c15: x_ijk_1_0_4 + x_ijk_1_1_4 <= 1
 c16: x_ijk_2_0_0 + x_ijk_2_1_0 + x_ijk_2_2_0 <= 1
 c17: x_ijk_2_0_1 + x_ijk_2_1_1 + x_ijk_2_2_1 <= 1
 c18: x_ijk_2_0_2 + x_ijk_2_1_2 + x_ijk_2_2_2 <= 1
 c19: x_ijk_2_0_3 + x_ijk_2_1_3 + x_ijk_2_2_3 <= 1
 c20: x_ijk_2_0_4 + x_ijk_2_1_4 + x_ijk_2_2_4 <= 1
 c21: x_ijk_3_0_0 + x_ijk_3_1_0 <= 1
 c22: x_ijk_3_0_1 + x_ijk_3_1_1 <= 1
 c23: x_ijk_3_0_2 + x_ijk_3_1_2 <= 1
 c24: x_ijk_3_0_3 + x_ijk_3_1_3 <= 1
 c25: x_ijk_3_0_4 + x_ijk_3_1_4 <= 1
 c26: x_ijk_4_0_0 + x_ijk_4_1_0 <= 1
 c27: x_ijk_4_0_1 + x_ijk_4_1_1 <= 1
 c28: x_ijk_4_0_2 + x_ijk_4_1_2 <= 1
 c29: x_ijk_4_0_3 + x_ijk_4_1_3 <= 1
 c30: x_ijk_4_0_4 + x_ijk_4_1_4 <= 1
 c31: x_ijk_5_0_0 + x_ijk_5_1_0 + x_ijk_5_2_0 <= 1
 c32: x_ijk_5_0_1 + x_ijk_5_1_1 + x_ijk_5_2_1 <= 1
 c33: x_ijk_5_0_2 + x_ijk_5_1_2 + x_ijk_5_2_2 <= 1
 c34: x_ijk_5_0_3 + x_ijk_5_1_3 + x_ijk_5_2_3 <= 1
 c35: x_ijk_5_0_4 + x_ijk_5_1_4 + x_ijk_5_2_4 <= 1
 c36: x_ijk_6_0_0 + x_ijk_6_1_0 + x_ijk_6_2_0 + x_ijk_6_3_0 <= 1
 c37: x_ijk_6_0_1 + x_ijk_6_1_1 + x_ijk_6_2_1 + x_ijk_6_3_1 <= 1
 c38: x_ijk_6_0_2 + x_ijk_6_1_2 + x_ijk_6_2_2 + x_ijk_6_3_2 <= 1
 c39: x_ijk_6_0_3 + x_ijk_6_1_3 + x_ijk_6_2_3 + x_ijk_6_3_3 <= 1
 c40: x_ijk_6_0_4 + x_ijk_6_1_4 + x_ijk_6_2_4 + x_ijk_6_3_4 <= 1
 c41: x_ijk_7_0_0 + x_ijk_7_1_0 + x_ijk_7_2_0 + x_ijk_7_3_0 <= 1
 c42: x_ijk_7_0_1 + x_ijk_7_1_1 + x_ijk_7_2_1 + x_ijk_7_3_1 <= 1
 c43: x_ijk_7_0_2 + x_ijk_7_1_2 + x_ijk_7_2_2 + x_ijk_7_3_2 <= 1
 c44: x_ijk_7_0_3 + x_ijk_7_1_3 + x_ijk_7_2_3 + x_ijk_7_3_3 <= 1
 c45: x_ijk_7_0_4 + x_ijk_7_1_4 + x_ijk_7_2_4 + x_ijk_7_3_4 <= 1
 c46: x_ijk_8_0_0 + x_ijk_8_1_0 + x_ijk_8_2_0 + x_ijk_8_3_0 + x_ijk_8_4_0 <= 1
 c47: x_ijk_8_0_1 + x_ijk_8_1_1 + x_ijk_8_2_1 + x_ijk_8_3_1 + x_ijk_8_4_1 <= 1
 c48: x_ijk_8_0_2 + x_ijk_8_1_2 + x_ijk_8_2_2 + x_ijk_8_3_2 + x_ijk_8_4_2 <= 1
 c49: x_ijk_8_0_3 + x_ijk_8_1_3 + x_ijk_8_2_3 + x_ijk_8_3_3 + x_ijk_8_4_3 <= 1
 c50: x_ijk_8_0_4 + x_ijk_8_1_4 + x_ijk_8_2_4 + x_ijk_8_3_4 + x_ijk_8_4_4 <= 1
Bounds
 0 <= x_ijk_0_0_0 <= 1
 0 <= x_ijk_0_1_0 <= 1
 0 <= x_ijk_0_2_0 <= 1
 0 <= x_ijk_1_0_0 <= 1
 0 <= x_ijk_1_1_0 <= 1
 0 <= x_ijk_2_0_0 <= 1
 0 <= x_ijk_2_1_0 <= 1
 0 <= x_ijk_2_2_0 <= 1
 0 <= x_ijk_3_0_0 <= 1
 0 <= x_ijk_3_1_0 <= 1
 0 <= x_ijk_4_0_0 <= 1
 0 <= x_ijk_4_1_0 <= 1
 0 <= x_ijk_5_0_0 <= 1
 0 <= x_ijk_5_1_0 <= 1
 0 <= x_ijk_5_2_0 <= 1
 0 <= x_ijk_6_0_0 <= 1
 0 <= x_ijk_6_1_0 <= 1
 0 <= x_ijk_6_2_0 <= 1
 0 <= x_ijk_6_3_0 <= 1
 0 <= x_ijk_7_0_0 <= 1
 0 <= x_ijk_7_1_0 <= 1
 0 <= x_ijk_7_2_0 <= 1
 0 <= x_ijk_7_3_0 <= 1
 0 <= x_ijk_8_0_0 <= 1
 0 <= x_ijk_8_1_0 <= 1
 0 <= x_ijk_8_2_0 <= 1
 0 <= x_ijk_8_3_0 <= 1
 0 <= x_ijk_8_4_0 <= 1
 0 <= x_ijk_0_0_1 <= 1
 0 <= x_ijk_0_1_1 <= 1
 0 <= x_ijk_0_2_1 <= 1
 0 <= x_ijk_1_0_1 <= 1
 0 <= x_ijk_1_1_1 <= 1
 0 <= x_ijk_2_0_1 <= 1
 0 <= x_ijk_2_1_1 <= 1
 0 <= x_ijk_2_2_1 <= 1
 0 <= x_ijk_3_0_1 <= 1
 0 <= x_ijk_3_1_1 <= 1
 0 <= x_ijk_4_0_1 <= 1
 0 <= x_ijk_4_1_1 <= 1
 0 <= x_ijk_5_0_1 <= 1
 0 <= x_ijk_5_1_1 <= 1
 0 <= x_ijk_5_2_1 <= 1
 0 <= x_ijk_6_0_1 <= 1
 0 <= x_ijk_6_1_1 <= 1
 0 <= x_ijk_6_2_1 <= 1
 0 <= x_ijk_6_3_1 <= 1
 0 <= x_ijk_7_0_1 <= 1
 0 <= x_ijk_7_1_1 <= 1
 0 <= x_ijk_7_2_1 <= 1
 0 <= x_ijk_7_3_1 <= 1
 0 <= x_ijk_8_0_1 <= 1
 0 <= x_ijk_8_1_1 <= 1
 0 <= x_ijk_8_2_1 <= 1
 0 <= x_ijk_8_3_1 <= 1
 0 <= x_ijk_8_4_1 <= 1
 0 <= x_ijk_0_0_2 <= 1
 0 <= x_ijk_0_1_2 <= 1
 0 <= x_ijk_0_2_2 <= 1
 0 <= x_ijk_1_0_2 <= 1
 0 <= x_ijk_1_1_2 <= 1
 0 <= x_ijk_2_0_2 <= 1
 0 <= x_ijk_2_1_2 <= 1
 0 <= x_ijk_2_2_2 <= 1
 0 <= x_ijk_3_0_2 <= 1
 0 <= x_ijk_3_1_2 <= 1
 0 <= x_ijk_4_0_2 <= 1
 0 <= x_ijk_4_1_2 <= 1
 0 <= x_ijk_5_0_2 <= 1
 0 <= x_ijk_5_1_2 <= 1
 0 <= x_ijk_5_2_2 <= 1
 0 <= x_ijk_6_0_2 <= 1
 0 <= x_ijk_6_1_2 <= 1
 0 <= x_ijk_6_2_2 <= 1
 0 <= x_ijk_6_3_2 <= 1
 0 <= x_ijk_7_0_2 <= 1
 0 <= x_ijk_7_1_2 <= 1
 0 <= x_ijk_7_2_2 <= 1
 0 <= x_ijk_7_3_2 <= 1
 0 <= x_ijk_8_0_2 <= 1
 0 <= x_ijk_8_1_2 <= 1
 0 <= x_ijk_8_2_2 <= 1
 0 <= x_ijk_8_3_2 <= 1
 0 <= x_ijk_8_4_2 <= 1
 0 <= x_ijk_0_0_3 <= 1
 0 <= x_ijk_0_1_3 <= 1
 0 <= x_ijk_0_2_3 <= 1
 0 <= x_ijk_1_0_3 <= 1
 0 <= x_ijk_1_1_3 <= 1
 0 <= x_ijk_2_0_3 <= 1
 0 <= x_ijk_2_1_3 <= 1
 0 <= x_ijk_2_2_3 <= 1
 0 <= x_ijk_3_0_3 <= 1
 0 <= x_ijk_3_1_3 <= 1
 0 <= x_ijk_4_0_3 <= 1
 0 <= x_ijk_4_1_3 <= 1
 0 <= x_ijk_5_0_3 <= 1
 0 <= x_ijk_5_1_3 <= 1
 0 <= x_ijk_5_2_3 <= 1
 0 <= x_ijk_6_0_3 <= 1
 0 <= x_ijk_6_1_3 <= 1
 0 <= x_ijk_6_2_3 <= 1
 0 <= x_ijk_6_3_3 <= 1
 0 <= x_ijk_7_0_3 <= 1
 0 <= x_ijk_7_1_3 <= 1
 0 <= x_ijk_7_2_3 <= 1
 0 <= x_ijk_7_3_3 <= 1
 0 <= x_ijk_8_0_3 <= 1
 0 <= x_ijk_8_1_3 <= 1
 0 <= x_ijk_8_2_3 <= 1
 0 <= x_ijk_8_3_3 <= 1
 0 <= x_ijk_8_4_3 <= 1
 0 <= x_ijk_0_0_4 <= 1
 0 <= x_ijk_0_1_4 <= 1
 0 <= x_ijk_0_2_4 <= 1
 0 <= x_ijk_1_0_4 <= 1
 0 <= x_ijk_1_1_4 <= 1
 0 <= x_ijk_2_0_4 <= 1
 0 <= x_ijk_2_1_4 <= 1
 0 <= x_ijk_2_2_4 <= 1
 0 <= x_ijk_3_0_4 <= 1
 0 <= x_ijk_3_1_4 <= 1
 0 <= x_ijk_4_0_4 <= 1
 0 <= x_ijk_4_1_4 <= 1
 0 <= x_ijk_5_0_4 <= 1
 0 <= x_ijk_5_1_4 <= 1
 0 <= x_ijk_5_2_4 <= 1
 0 <= x_ijk_6_0_4 <= 1
 0 <= x_ijk_6_1_4 <= 1
 0 <= x_ijk_6_2_4 <= 1
 0 <= x_ijk_6_3_4 <= 1
 0 <= x_ijk_7_0_4 <= 1
 0 <= x_ijk_7_1_4 <= 1
 0 <= x_ijk_7_2_4 <= 1
 0 <= x_ijk_7_3_4 <= 1
 0 <= x_ijk_8_0_4 <= 1
 0 <= x_ijk_8_1_4 <= 1
 0 <= x_ijk_8_2_4 <= 1
 0 <= x_ijk_8_3_4 <= 1
 0 <= x_ijk_8_4_4 <= 1
Binaries
 x_ijk_0_0_0  x_ijk_0_1_0  x_ijk_0_2_0  x_ijk_1_0_0  x_ijk_1_1_0  x_ijk_2_0_0 
 x_ijk_2_1_0  x_ijk_2_2_0  x_ijk_3_0_0  x_ijk_3_1_0  x_ijk_4_0_0  x_ijk_4_1_0 
 x_ijk_5_0_0  x_ijk_5_1_0  x_ijk_5_2_0  x_ijk_6_0_0  x_ijk_6_1_0  x_ijk_6_2_0 
 x_ijk_6_3_0  x_ijk_7_0_0  x_ijk_7_1_0  x_ijk_7_2_0  x_ijk_7_3_0  x_ijk_8_0_0 
 x_ijk_8_1_0  x_ijk_8_2_0  x_ijk_8_3_0  x_ijk_8_4_0  x_ijk_0_0_1  x_ijk_0_1_1 
 x_ijk_0_2_1  x_ijk_1_0_1  x_ijk_1_1_1  x_ijk_2_0_1  x_ijk_2_1_1  x_ijk_2_2_1 
 x_ijk_3_0_1  x_ijk_3_1_1  x_ijk_4_0_1  x_ijk_4_1_1  x_ijk_5_0_1  x_ijk_5_1_1 
 x_ijk_5_2_1  x_ijk_6_0_1  x_ijk_6_1_1  x_ijk_6_2_1  x_ijk_6_3_1  x_ijk_7_0_1 
 x_ijk_7_1_1  x_ijk_7_2_1  x_ijk_7_3_1  x_ijk_8_0_1  x_ijk_8_1_1  x_ijk_8_2_1 
 x_ijk_8_3_1  x_ijk_8_4_1  x_ijk_0_0_2  x_ijk_0_1_2  x_ijk_0_2_2  x_ijk_1_0_2 
 x_ijk_1_1_2  x_ijk_2_0_2  x_ijk_2_1_2  x_ijk_2_2_2  x_ijk_3_0_2  x_ijk_3_1_2 
 x_ijk_4_0_2  x_ijk_4_1_2  x_ijk_5_0_2  x_ijk_5_1_2  x_ijk_5_2_2  x_ijk_6_0_2 
 x_ijk_6_1_2  x_ijk_6_2_2  x_ijk_6_3_2  x_ijk_7_0_2  x_ijk_7_1_2  x_ijk_7_2_2 
 x_ijk_7_3_2  x_ijk_8_0_2  x_ijk_8_1_2  x_ijk_8_2_2  x_ijk_8_3_2  x_ijk_8_4_2 
 x_ijk_0_0_3  x_ijk_0_1_3  x_ijk_0_2_3  x_ijk_1_0_3  x_ijk_1_1_3  x_ijk_2_0_3 
 x_ijk_2_1_3  x_ijk_2_2_3  x_ijk_3_0_3  x_ijk_3_1_3  x_ijk_4_0_3  x_ijk_4_1_3 
 x_ijk_5_0_3  x_ijk_5_1_3  x_ijk_5_2_3  x_ijk_6_0_3  x_ijk_6_1_3  x_ijk_6_2_3 
 x_ijk_6_3_3  x_ijk_7_0_3  x_ijk_7_1_3  x_ijk_7_2_3  x_ijk_7_3_3  x_ijk_8_0_3 
 x_ijk_8_1_3  x_ijk_8_2_3  x_ijk_8_3_3  x_ijk_8_4_3  x_ijk_0_0_4  x_ijk_0_1_4 
 x_ijk_0_2_4  x_ijk_1_0_4  x_ijk_1_1_4  x_ijk_2_0_4  x_ijk_2_1_4  x_ijk_2_2_4 
 x_ijk_3_0_4  x_ijk_3_1_4  x_ijk_4_0_4  x_ijk_4_1_4  x_ijk_5_0_4  x_ijk_5_1_4 
 x_ijk_5_2_4  x_ijk_6_0_4  x_ijk_6_1_4  x_ijk_6_2_4  x_ijk_6_3_4  x_ijk_7_0_4 
 x_ijk_7_1_4  x_ijk_7_2_4  x_ijk_7_3_4  x_ijk_8_0_4  x_ijk_8_1_4  x_ijk_8_2_4 
 x_ijk_8_3_4  x_ijk_8_4_4 
End
